<number of tasks>
20

<cycle time>
1000

<order strength>
0,511


<task times>
1 503
2 462
3 396
4 571
5 555
6 495
7 354
8 476
9 381
10 572
11 487
12 437
13 645
14 656
15 380
16 546
17 266
18 460
19 520
20 455

<precedence relations>
1,4
1,6
1,9
2,5
2,7
2,8
3,7
3,8
4,10
7,9
7,10
8,14
9,11
9,15
9,19
10,12
11,14
12,13
12,15
13,16
13,18
13,19
14,20
15,16
15,17
15,20

<end>
